\ This file has been generated by DOcplex
\ ENCODING=ISO-8859-1
\Problem name: random_problem.lp

Minimize
 obj: - 304 x0 - 152 x1 - 76 x2 - 396 x3 - 198 x4 - 99 x5 - 492 x6 - 246 x7
      - 123 x8 + 996 x9 + 498 x10 + 249 x11 + 180 x12 + 90 x13 + 45 x14
      - 400 x15 - 200 x16 - 100 x17 + 712 x18 + 356 x19 + 178 x20 + 208 x21
      + 104 x22 + 52 x23 + [ 1920 x0^2 + 1920 x0*x1 + 960 x0*x2 + 1472 x0*x3
      + 736 x0*x4 + 368 x0*x5 + 2944 x0*x6 + 1472 x0*x7 + 736 x0*x8 + 2560 x0*x9
      + 1280 x0*x10 + 640 x0*x11 + 3072 x0*x12 + 1536 x0*x13 + 768 x0*x14
      + 320 x0*x15 + 160 x0*x16 + 80 x0*x17 + 5952 x0*x18 + 2976 x0*x19
      + 1488 x0*x20 + 2176 x0*x21 + 1088 x0*x22 + 544 x0*x23 + 480 x1^2
      + 480 x1*x2 + 736 x1*x3 + 368 x1*x4 + 184 x1*x5 + 1472 x1*x6 + 736 x1*x7
      + 368 x1*x8 + 1280 x1*x9 + 640 x1*x10 + 320 x1*x11 + 1536 x1*x12
      + 768 x1*x13 + 384 x1*x14 + 160 x1*x15 + 80 x1*x16 + 40 x1*x17
      + 2976 x1*x18 + 1488 x1*x19 + 744 x1*x20 + 1088 x1*x21 + 544 x1*x22
      + 272 x1*x23 + 120 x2^2 + 368 x2*x3 + 184 x2*x4 + 92 x2*x5 + 736 x2*x6
      + 368 x2*x7 + 184 x2*x8 + 640 x2*x9 + 320 x2*x10 + 160 x2*x11 + 768 x2*x12
      + 384 x2*x13 + 192 x2*x14 + 80 x2*x15 + 40 x2*x16 + 20 x2*x17
      + 1488 x2*x18 + 744 x2*x19 + 372 x2*x20 + 544 x2*x21 + 272 x2*x22
      + 136 x2*x23 + 1856 x3^2 + 1856 x3*x4 + 928 x3*x5 + 832 x3*x6 + 416 x3*x7
      + 208 x3*x8 + 1280 x3*x9 + 640 x3*x10 + 320 x3*x11 + 2176 x3*x12
      + 1088 x3*x13 + 544 x3*x14 + 448 x3*x15 + 224 x3*x16 + 112 x3*x17
      + 1216 x3*x18 + 608 x3*x19 + 304 x3*x20 + 960 x3*x21 + 480 x3*x22
      + 240 x3*x23 + 464 x4^2 + 464 x4*x5 + 416 x4*x6 + 208 x4*x7 + 104 x4*x8
      + 640 x4*x9 + 320 x4*x10 + 160 x4*x11 + 1088 x4*x12 + 544 x4*x13
      + 272 x4*x14 + 224 x4*x15 + 112 x4*x16 + 56 x4*x17 + 608 x4*x18
      + 304 x4*x19 + 152 x4*x20 + 480 x4*x21 + 240 x4*x22 + 120 x4*x23
      + 116 x5^2 + 208 x5*x6 + 104 x5*x7 + 52 x5*x8 + 320 x5*x9 + 160 x5*x10
      + 80 x5*x11 + 544 x5*x12 + 272 x5*x13 + 136 x5*x14 + 112 x5*x15
      + 56 x5*x16 + 28 x5*x17 + 304 x5*x18 + 152 x5*x19 + 76 x5*x20 + 240 x5*x21
      + 120 x5*x22 + 60 x5*x23 + 2752 x6^2 + 2752 x6*x7 + 1376 x6*x8
      + 1984 x6*x9 + 992 x6*x10 + 496 x6*x11 + 3392 x6*x12 + 1696 x6*x13
      + 848 x6*x14 - 512 x6*x15 - 256 x6*x16 - 128 x6*x17 + 7040 x6*x18
      + 3520 x6*x19 + 1760 x6*x20 + 320 x6*x21 + 160 x6*x22 + 80 x6*x23
      + 688 x7^2 + 688 x7*x8 + 992 x7*x9 + 496 x7*x10 + 248 x7*x11 + 1696 x7*x12
      + 848 x7*x13 + 424 x7*x14 - 256 x7*x15 - 128 x7*x16 - 64 x7*x17
      + 3520 x7*x18 + 1760 x7*x19 + 880 x7*x20 + 160 x7*x21 + 80 x7*x22
      + 40 x7*x23 + 172 x8^2 + 496 x8*x9 + 248 x8*x10 + 124 x8*x11 + 848 x8*x12
      + 424 x8*x13 + 212 x8*x14 - 128 x8*x15 - 64 x8*x16 - 32 x8*x17
      + 1760 x8*x18 + 880 x8*x19 + 440 x8*x20 + 80 x8*x21 + 40 x8*x22
      + 20 x8*x23 + 2720 x9^2 + 2720 x9*x10 + 1360 x9*x11 + 1984 x9*x12
      + 992 x9*x13 + 496 x9*x14 + 1344 x9*x15 + 672 x9*x16 + 336 x9*x17
      + 4480 x9*x18 + 2240 x9*x19 + 1120 x9*x20 + 6912 x9*x21 + 3456 x9*x22
      + 1728 x9*x23 + 680 x10^2 + 680 x10*x11 + 992 x10*x12 + 496 x10*x13
      + 248 x10*x14 + 672 x10*x15 + 336 x10*x16 + 168 x10*x17 + 2240 x10*x18
      + 1120 x10*x19 + 560 x10*x20 + 3456 x10*x21 + 1728 x10*x22 + 864 x10*x23
      + 170 x11^2 + 496 x11*x12 + 248 x11*x13 + 124 x11*x14 + 336 x11*x15
      + 168 x11*x16 + 84 x11*x17 + 1120 x11*x18 + 560 x11*x19 + 280 x11*x20
      + 1728 x11*x21 + 864 x11*x22 + 432 x11*x23 + 2656 x12^2 + 2656 x12*x13
      + 1328 x12*x14 + 4736 x12*x18 + 2368 x12*x19 + 1184 x12*x20 + 896 x12*x21
      + 448 x12*x22 + 224 x12*x23 + 664 x13^2 + 664 x13*x14 + 2368 x13*x18
      + 1184 x13*x19 + 592 x13*x20 + 448 x13*x21 + 224 x13*x22 + 112 x13*x23
      + 166 x14^2 + 1184 x14*x18 + 592 x14*x19 + 296 x14*x20 + 224 x14*x21
      + 112 x14*x22 + 56 x14*x23 + 992 x15^2 + 992 x15*x16 + 496 x15*x17
      - 2176 x15*x18 - 1088 x15*x19 - 544 x15*x20 + 3648 x15*x21 + 1824 x15*x22
      + 912 x15*x23 + 248 x16^2 + 248 x16*x17 - 1088 x16*x18 - 544 x16*x19
      - 272 x16*x20 + 1824 x16*x21 + 912 x16*x22 + 456 x16*x23 + 62 x17^2
      - 544 x17*x18 - 272 x17*x19 - 136 x17*x20 + 912 x17*x21 + 456 x17*x22
      + 228 x17*x23 + 10624 x18^2 + 10624 x18*x19 + 5312 x18*x20 - 448 x18*x21
      - 224 x18*x22 - 112 x18*x23 + 2656 x19^2 + 2656 x19*x20 - 224 x19*x21
      - 112 x19*x22 - 56 x19*x23 + 664 x20^2 - 112 x20*x21 - 56 x20*x22
      - 28 x20*x23 + 9664 x21^2 + 9664 x21*x22 + 4832 x21*x23 + 2416 x22^2
      + 2416 x22*x23 + 604 x23^2 ]/2
Subject To
 c0: 4 x0 + 2 x1 + x2 + 4 x3 + 2 x4 + x5 + 4 x6 + 2 x7 + x8 + 4 x9 + 2 x10 + x11
     + 4 x12 + 2 x13 + x14 + 4 x15 + 2 x16 + x17 + 4 x18 + 2 x19 + x20 + 4 x21
     + 2 x22 + x23 = 7

Bounds
 0 <= x0 <= 1
 0 <= x1 <= 1
 0 <= x2 <= 1
 0 <= x3 <= 1
 0 <= x4 <= 1
 0 <= x5 <= 1
 0 <= x6 <= 1
 0 <= x7 <= 1
 0 <= x8 <= 1
 0 <= x9 <= 1
 0 <= x10 <= 1
 0 <= x11 <= 1
 0 <= x12 <= 1
 0 <= x13 <= 1
 0 <= x14 <= 1
 0 <= x15 <= 1
 0 <= x16 <= 1
 0 <= x17 <= 1
 0 <= x18 <= 1
 0 <= x19 <= 1
 0 <= x20 <= 1
 0 <= x21 <= 1
 0 <= x22 <= 1
 0 <= x23 <= 1

Binaries
 x0 x1 x2 x3 x4 x5 x6 x7 x8 x9 x10 x11 x12 x13 x14 x15 x16 x17 x18 x19 x20 x21
 x22 x23
End
